
  32    4
  10   10   10   10

   0   0   0   0   0   3 2 3 9 
   8   1   1   0   1   2 11 4 
   8   1   5   0   5   2 11 4 
   7   0   3   1   5   2 8 5 
   6   5   0   2   3   2 10 6 
   4   4   0   3  10   1 7 
  10   4   4   0   2   3 17 14 12 
   1   0   6   4   2   2 12 10 
   2   4   0   7   7   2 11 10 
  10   3   2   6   0   2 17 13 
   1   0   4   6   1   2 17 13 
   1   0   4   5   1   1 13 
   1   4   5   0   7   3 21 19 15 
   4   0   6   5   3   3 21 19 15 
   7   6   3   5   0   1 16 
   6   5   5   5   0   2 24 18 
   8   4   0   3   1   2 21 18 
   1   5   5   0   5   1 20 
  10   4   2   0   2   1 20 
   2   3   6   0   2   1 22 
   5   0   7   5   6   1 22 
   8   2   5   0   6   2 26 23 
   9   5   5   2   0   5 31 30 29 27 25 
   6   6   4   3   0   2 27 25 
   1   7   1   2   0   1 28 
   4   4   3   4   0   1 27 
   1   0   4   2   6   1 32
   7   3   0   5   1   1 32
   7   3   0   5   7   1 32
  10   4   4   0   3   1 32
   4   5   2   0   6   1 32
   0   0   0   0   0   0 
